(declare-const BAV1 Bool)
(declare-const BAV2 Bool)
(declare-const GEN4 Real)
(get-model)
(declare-const GEN3 Real)
(declare-const GEN2 Real)
(declare-const GEN1 Real)
(set-option :auto-config true)
(set-option :produce-models true)
(declare-const a Real)
(assert (= (/ a GEN1) GEN2))
(assert (= BAV1 (= (/ a GEN1) GEN2)))
(assert (= BAV2 (= (/ a GEN3) GEN4)))
(check-sat)
(get-model)
(assert (= (/ a GEN3) GEN4))
(check-sat)